p cnf 240 726
-1 16 0
-17 -1 16 0
-17 1 -16 0
17 1 16 0
17 -1 -16 0
-17 -2 15 0
-18 17 0
-18 -2 15 0
-18 2 -15 0
18 -17 -2 -15 0
18 -17 2 15 0
-18 -3 14 0
-19 18 0
-19 -3 14 0
-19 3 -14 0
19 -18 -3 -14 0
19 -18 3 14 0
-19 -4 13 0
-20 19 0
-20 -4 13 0
-20 4 -13 0
20 -19 -4 -13 0
20 -19 4 13 0
-20 -5 12 0
-21 20 0
-21 -5 12 0
-21 5 -12 0
21 -20 -5 -12 0
21 -20 5 12 0
-21 -6 11 0
-22 21 0
-22 -6 11 0
-22 6 -11 0
22 -21 -6 -11 0
22 -21 6 11 0
-22 -7 10 0
-23 22 0
-23 -7 10 0
-23 7 -10 0
23 -22 -7 -10 0
23 -22 7 10 0
-23 -8 9 0
-24 23 0
-24 -8 9 0
-24 8 -9 0
24 -23 -8 -9 0
24 -23 8 9 0
-24 -9 8 0
-25 24 0
-25 -9 8 0
-25 9 -8 0
25 -24 -9 -8 0
25 -24 9 8 0
-25 -10 7 0
-26 25 0
-26 -10 7 0
-26 10 -7 0
26 -25 -10 -7 0
26 -25 10 7 0
-26 -11 6 0
-27 26 0
-27 -11 6 0
-27 11 -6 0
27 -26 -11 -6 0
27 -26 11 6 0
-27 -12 5 0
-28 27 0
-28 -12 5 0
-28 12 -5 0
28 -27 -12 -5 0
28 -27 12 5 0
-28 -13 4 0
-29 28 0
-29 -13 4 0
-29 13 -4 0
29 -28 -13 -4 0
29 -28 13 4 0
-29 -14 3 0
-30 29 0
-30 -14 3 0
-30 14 -3 0
30 -29 -14 -3 0
30 -29 14 3 0
-30 -15 2 0
-31 30 0
-31 -15 2 0
-31 15 -2 0
31 -30 -15 -2 0
31 -30 15 2 0
-31 -16 1 0
-32 31 0
-32 -16 1 0
-32 16 -1 0
32 -31 -16 -1 0
32 -31 16 1 0
13 14 15 16 0
4 8 12 16 0
-2 6 3 1 5 0
-7 11 3 8 6 10 4 0
-10 14 6 11 9 13 7 0
-1 5 2 0
-14 10 15 13 11 0
-6 10 2 7 5 9 3 0
-4 8 3 7 0
-9 13 5 10 6 0
-13 9 14 10 0
-12 16 8 11 15 0
-3 7 4 2 6 0
-16 12 15 0
-11 15 7 12 10 14 8 0
-5 9 1 6 2 0
-15 11 16 14 12 0
-8 12 4 7 11 0
-33 2 0
-33 5 0
-33 6 0
-34 3 0
-34 6 0
-34 7 0
-35 4 0
-35 7 0
-35 8 0
-36 6 0
-36 9 0
-36 10 0
-37 7 0
-37 10 0
-37 11 0
-38 8 0
-38 11 0
-38 12 0
-39 10 0
-39 13 0
-39 14 0
-40 11 0
-40 14 0
-40 15 0
-41 12 0
-41 15 0
-41 16 0
-42 1 0
-42 2 0
-42 5 0
-43 2 0
-43 3 0
-43 6 0
-44 3 0
-44 4 0
-44 7 0
-45 5 0
-45 6 0
-45 9 0
-46 6 0
-46 7 0
-46 10 0
-47 7 0
-47 8 0
-47 11 0
-48 9 0
-48 10 0
-48 13 0
-49 10 0
-49 11 0
-49 14 0
-50 11 0
-50 12 0
-50 15 0
33 34 35 36 37 38 39 40 41 42 43 44 45 46 47 48 49 50 0
-51 3 0
-51 5 0
-51 6 0
-52 4 0
-52 6 0
-52 7 0
-53 7 0
-53 9 0
-53 10 0
-54 8 0
-54 10 0
-54 11 0
-55 11 0
-55 13 0
-55 14 0
-56 12 0
-56 14 0
-56 15 0
-57 2 0
-57 3 0
-57 5 0
-58 3 0
-58 4 0
-58 6 0
-59 6 0
-59 7 0
-59 9 0
-60 7 0
-60 8 0
-60 10 0
-61 10 0
-61 11 0
-61 13 0
-62 11 0
-62 12 0
-62 14 0
-63 2 0
-63 6 0
-63 9 0
-64 3 0
-64 7 0
-64 10 0
-65 4 0
-65 8 0
-65 11 0
-66 6 0
-66 10 0
-66 13 0
-67 7 0
-67 11 0
-67 14 0
-68 8 0
-68 12 0
-68 15 0
-69 1 0
-69 2 0
-69 6 0
-70 2 0
-70 3 0
-70 7 0
-71 3 0
-71 4 0
-71 8 0
-72 5 0
-72 6 0
-72 10 0
-73 6 0
-73 7 0
-73 11 0
-74 7 0
-74 8 0
-74 12 0
-75 9 0
-75 10 0
-75 14 0
-76 10 0
-76 11 0
-76 15 0
-77 11 0
-77 12 0
-77 16 0
-78 1 0
-78 5 0
-78 6 0
-79 2 0
-79 6 0
-79 7 0
-80 3 0
-80 7 0
-80 8 0
-81 5 0
-81 9 0
-81 10 0
-82 6 0
-82 10 0
-82 11 0
-83 7 0
-83 11 0
-83 12 0
-84 9 0
-84 13 0
-84 14 0
-85 10 0
-85 14 0
-85 15 0
-86 11 0
-86 15 0
-86 16 0
-87 2 0
-87 5 0
-87 9 0
-88 3 0
-88 6 0
-88 10 0
-89 4 0
-89 7 0
-89 11 0
-90 6 0
-90 9 0
-90 13 0
-91 7 0
-91 10 0
-91 14 0
-92 8 0
-92 11 0
-92 15 0
51 52 53 54 55 56 57 58 59 60 61 62 63 64 65 66 67 68 69 70 71 72 73 74 75 76 77 78 79 80 81 82 83 84 85 86 87 88 89 90 91 92 0
-93 1 0
-93 2 0
-93 3 0
-94 2 0
-94 3 0
-94 4 0
-95 5 0
-95 6 0
-95 7 0
-96 6 0
-96 7 0
-96 8 0
-97 9 0
-97 10 0
-97 11 0
-98 10 0
-98 11 0
-98 12 0
-99 13 0
-99 14 0
-99 15 0
-100 14 0
-100 15 0
-100 16 0
-101 3 0
-101 6 0
-101 9 0
-102 4 0
-102 7 0
-102 10 0
-103 7 0
-103 10 0
-103 13 0
-104 8 0
-104 11 0
-104 14 0
-105 1 0
-105 5 0
-105 9 0
-106 2 0
-106 6 0
-106 10 0
-107 3 0
-107 7 0
-107 11 0
-108 4 0
-108 8 0
-108 12 0
-109 5 0
-109 9 0
-109 13 0
-110 6 0
-110 10 0
-110 14 0
-111 7 0
-111 11 0
-111 15 0
-112 8 0
-112 12 0
-112 16 0
93 94 95 96 97 98 99 100 101 102 103 104 105 106 107 108 109 110 111 112 0
-137 113 0
-138 114 0
-139 115 0
-140 116 0
-141 117 0
-142 118 0
-143 119 0
-144 120 0
-129 113 0
-130 114 0
-131 115 0
-132 116 0
-133 117 0
-134 118 0
-135 119 0
-136 120 0
-129 -137 114 0
-129 -138 115 0
-129 -139 116 0
-129 -140 117 0
-129 -141 118 0
-129 -142 119 0
-129 -143 120 0
-129 -144 121 0
-130 -137 115 0
-130 -138 116 0
-130 -139 117 0
-130 -140 118 0
-130 -141 119 0
-130 -142 120 0
-130 -143 121 0
-130 -144 122 0
-131 -137 116 0
-131 -138 117 0
-131 -139 118 0
-131 -140 119 0
-131 -141 120 0
-131 -142 121 0
-131 -143 122 0
-131 -144 123 0
-132 -137 117 0
-132 -138 118 0
-132 -139 119 0
-132 -140 120 0
-132 -141 121 0
-132 -142 122 0
-132 -143 123 0
-132 -144 124 0
-133 -137 118 0
-133 -138 119 0
-133 -139 120 0
-133 -140 121 0
-133 -141 122 0
-133 -142 123 0
-133 -143 124 0
-133 -144 125 0
-134 -137 119 0
-134 -138 120 0
-134 -139 121 0
-134 -140 122 0
-134 -141 123 0
-134 -142 124 0
-134 -143 125 0
-134 -144 126 0
-135 -137 120 0
-135 -138 121 0
-135 -139 122 0
-135 -140 123 0
-135 -141 124 0
-135 -142 125 0
-135 -143 126 0
-135 -144 127 0
-136 -137 121 0
-136 -138 122 0
-136 -139 123 0
-136 -140 124 0
-136 -141 125 0
-136 -142 126 0
-136 -143 127 0
-136 -144 128 0
-149 137 0
-150 138 0
-151 139 0
-152 140 0
-145 137 0
-146 138 0
-147 139 0
-148 140 0
-145 -149 138 0
-145 -150 139 0
-145 -151 140 0
-145 -152 141 0
-146 -149 139 0
-146 -150 140 0
-146 -151 141 0
-146 -152 142 0
-147 -149 140 0
-147 -150 141 0
-147 -151 142 0
-147 -152 143 0
-148 -149 141 0
-148 -150 142 0
-148 -151 143 0
-148 -152 144 0
-155 149 0
-156 150 0
-153 149 0
-154 150 0
-153 -155 150 0
-153 -156 151 0
-154 -155 151 0
-154 -156 152 0
16 155 0
15 155 0
15 16 156 0
14 153 0
13 153 0
13 14 154 0
-159 145 0
-160 146 0
-157 145 0
-158 146 0
-157 -159 146 0
-157 -160 147 0
-158 -159 147 0
-158 -160 148 0
12 159 0
11 159 0
11 12 160 0
10 157 0
9 157 0
9 10 158 0
-165 129 0
-166 130 0
-167 131 0
-168 132 0
-161 129 0
-162 130 0
-163 131 0
-164 132 0
-161 -165 130 0
-161 -166 131 0
-161 -167 132 0
-161 -168 133 0
-162 -165 131 0
-162 -166 132 0
-162 -167 133 0
-162 -168 134 0
-163 -165 132 0
-163 -166 133 0
-163 -167 134 0
-163 -168 135 0
-164 -165 133 0
-164 -166 134 0
-164 -167 135 0
-164 -168 136 0
-171 165 0
-172 166 0
-169 165 0
-170 166 0
-169 -171 166 0
-169 -172 167 0
-170 -171 167 0
-170 -172 168 0
8 171 0
7 171 0
7 8 172 0
6 169 0
5 169 0
5 6 170 0
-175 161 0
-176 162 0
-173 161 0
-174 162 0
-173 -175 162 0
-173 -176 163 0
-174 -175 163 0
-174 -176 164 0
4 175 0
3 175 0
3 4 176 0
2 173 0
1 173 0
1 2 174 0
-126 0
-201 177 0
-202 178 0
-203 179 0
-204 180 0
-205 181 0
-206 182 0
-207 183 0
-208 184 0
-193 177 0
-194 178 0
-195 179 0
-196 180 0
-197 181 0
-198 182 0
-199 183 0
-200 184 0
-193 -201 178 0
-193 -202 179 0
-193 -203 180 0
-193 -204 181 0
-193 -205 182 0
-193 -206 183 0
-193 -207 184 0
-193 -208 185 0
-194 -201 179 0
-194 -202 180 0
-194 -203 181 0
-194 -204 182 0
-194 -205 183 0
-194 -206 184 0
-194 -207 185 0
-194 -208 186 0
-195 -201 180 0
-195 -202 181 0
-195 -203 182 0
-195 -204 183 0
-195 -205 184 0
-195 -206 185 0
-195 -207 186 0
-195 -208 187 0
-196 -201 181 0
-196 -202 182 0
-196 -203 183 0
-196 -204 184 0
-196 -205 185 0
-196 -206 186 0
-196 -207 187 0
-196 -208 188 0
-197 -201 182 0
-197 -202 183 0
-197 -203 184 0
-197 -204 185 0
-197 -205 186 0
-197 -206 187 0
-197 -207 188 0
-197 -208 189 0
-198 -201 183 0
-198 -202 184 0
-198 -203 185 0
-198 -204 186 0
-198 -205 187 0
-198 -206 188 0
-198 -207 189 0
-198 -208 190 0
-199 -201 184 0
-199 -202 185 0
-199 -203 186 0
-199 -204 187 0
-199 -205 188 0
-199 -206 189 0
-199 -207 190 0
-199 -208 191 0
-200 -201 185 0
-200 -202 186 0
-200 -203 187 0
-200 -204 188 0
-200 -205 189 0
-200 -206 190 0
-200 -207 191 0
-200 -208 192 0
-213 201 0
-214 202 0
-215 203 0
-216 204 0
-209 201 0
-210 202 0
-211 203 0
-212 204 0
-209 -213 202 0
-209 -214 203 0
-209 -215 204 0
-209 -216 205 0
-210 -213 203 0
-210 -214 204 0
-210 -215 205 0
-210 -216 206 0
-211 -213 204 0
-211 -214 205 0
-211 -215 206 0
-211 -216 207 0
-212 -213 205 0
-212 -214 206 0
-212 -215 207 0
-212 -216 208 0
-219 213 0
-220 214 0
-217 213 0
-218 214 0
-217 -219 214 0
-217 -220 215 0
-218 -219 215 0
-218 -220 216 0
-16 219 0
-15 219 0
-15 -16 220 0
-14 217 0
-13 217 0
-13 -14 218 0
-223 209 0
-224 210 0
-221 209 0
-222 210 0
-221 -223 210 0
-221 -224 211 0
-222 -223 211 0
-222 -224 212 0
-12 223 0
-11 223 0
-11 -12 224 0
-10 221 0
-9 221 0
-9 -10 222 0
-229 193 0
-230 194 0
-231 195 0
-232 196 0
-225 193 0
-226 194 0
-227 195 0
-228 196 0
-225 -229 194 0
-225 -230 195 0
-225 -231 196 0
-225 -232 197 0
-226 -229 195 0
-226 -230 196 0
-226 -231 197 0
-226 -232 198 0
-227 -229 196 0
-227 -230 197 0
-227 -231 198 0
-227 -232 199 0
-228 -229 197 0
-228 -230 198 0
-228 -231 199 0
-228 -232 200 0
-235 229 0
-236 230 0
-233 229 0
-234 230 0
-233 -235 230 0
-233 -236 231 0
-234 -235 231 0
-234 -236 232 0
-8 235 0
-7 235 0
-7 -8 236 0
-6 233 0
-5 233 0
-5 -6 234 0
-239 225 0
-240 226 0
-237 225 0
-238 226 0
-237 -239 226 0
-237 -240 227 0
-238 -239 227 0
-238 -240 228 0
-4 239 0
-3 239 0
-3 -4 240 0
-2 237 0
-1 237 0
-1 -2 238 0
-180 0
